proyfinal/src/viki/013/experimentInOfficeAgust.take6.output/bd07fa89-793a-43e2-81aa-124fde5b8e4f.als.dat
{'cnf.clauses': '118081',
 'cnf.totvars': '69608',
 'conflict literals': '39',
 'conflicts': '21',
 'decisions': '7949',
 'memused.mb': '14.73',
 'outcome': 'UNSAT',
 'propagations': '36689',
 'restarts': '1',
 'solver.msecs': 36,
 'task.msecs': 99}
