proyfinal/src/viki/013/experimentInOfficeAgust.take6.output/bd07fa89-793a-43e2-81aa-124fde5b8e4f.als.out
Reading from standard input... Use '--help' for help.
============================[ Problem Statistics ]=============================
|                                                                             |
|  Number of variables:         69608                                         |
|  Number of clauses:          118081                                         |
|  Parse time:                   0.03 s                                       |
|                                                                             |
============================[ Search Statistics ]==============================
| Conflicts |          ORIGINAL         |          LEARNT          | Progress |
|           |    Vars  Clauses Literals |    Limit  Clauses Lit/Cl |          |
===============================================================================
===============================================================================
restarts              : 1
conflicts             : 21             (570 /sec)
decisions             : 7949           (0.00 % random) (215595 /sec)
propagations          : 36689          (995091 /sec)
conflict literals     : 39             (0.00 % deleted)
Memory used           : 14.73 MB
CPU time              : 0.03687 s

UNSATISFIABLE
